
Gurobi 10.0.1 (linux64) logging started Sun Nov 26 15:49:40 2023

Set parameter LogFile to value "ArtificialInstance/ExperimentV2/S3T3K2/AdRo/gurobiDoRo59.txt"
Gurobi Optimizer version 10.0.1 build v10.0.1rc0 (linux64)

CPU model: AMD EPYC 7H12 64-Core Processor, instruction set [SSE2|AVX|AVX2]
Thread count: 128 physical cores, 128 logical processors, using up to 32 threads

Academic license 656792 - for non-commercial use only - registered to b.___@student.vu.nl
Optimize a model with 6867 rows, 6733 columns and 26037 nonzeros
Model fingerprint: 0xea119c34
Variable types: 1 continuous, 6732 integer (6732 binary)
Coefficient statistics:
  Matrix range     [1e+00, 4e+01]
  Objective range  [1e+00, 2e+01]
  Bounds range     [1e+00, 1e+00]
  RHS range        [1e+00, 1e+00]
Presolve removed 2633 rows and 2432 columns
Presolve time: 0.08s
Presolved: 4234 rows, 4301 columns, 16595 nonzeros
Variable types: 1 continuous, 4300 integer (4300 binary)
Found heuristic solution: objective 75.9750261

Root relaxation: objective 6.738839e+01, 1654 iterations, 0.06 seconds (0.04 work units)

    Nodes    |    Current Node    |     Objective Bounds      |     Work
 Expl Unexpl |  Obj  Depth IntInf | Incumbent    BestBd   Gap | It/Node Time

H    0     0                      67.3883886   38.72754  42.5%     -    0s
     0     0          -    0        67.38839   67.38839  0.00%     -    0s

Explored 1 nodes (2299 simplex iterations) in 0.19 seconds (0.13 work units)
Thread count was 32 (of 128 available processors)

Solution count 2: 67.3884 75.975 

Optimal solution found (tolerance 1.00e-04)
Best objective 6.738838861512e+01, best bound 6.738838861512e+01, gap 0.0000%
